#Data

param b :
  1 2 3 4  :=
1 211 232 238 299 
2 232 212 230 280
3 240 230 215 270 
4 300 280 270 225;

param a :
  1 2 3 4 :=
1 6000000 5500000 5600000 6100000
2 10000000 9200000 9300000 10200000;

param c := 1 110000 2 180000 3 120000 4 100000;